1000
[150,152,153,154,155,156,158,159,160,161,162,163,164,165,166,169,170,171,173,174,175,176,177,178,179,181,182,183,185,186,187,188,189,190,191,192,193,194,195,196,197,198,199]
[3,2,2,4,3,3,5,1,1,3,1,1,1,2,4,1,2,1,5,1,3,1,1,2,1,1,2,2,2,4,2,3,2,2,5,1,4,3,1,1,2,4,5]
